! Generated by generate_inputs.sh on 2026-04-14T21:42:10
! System: si216 — Si diamond, 3x3x3 of conventional cell (a=10.26 bohr)
! Purpose: apple-bottom A/B/C BLAS benchmark (AB_MODE={cpu,gpu,auto})
&CONTROL
    calculation      = 'scf'
    prefix           = 'si216'
    outdir           = './tmp'
    pseudo_dir       = '/Users/grantheileman/qe-test/wannier90/pseudo'
    verbosity        = 'default'
    tstress          = .false.
    tprnfor          = .false.
/
&SYSTEM
    ibrav            = 0
    nat              = 216
    ntyp             = 1
    ecutwfc          = 25.0
    nbnd             = 500
    occupations      = 'smearing'
    smearing         = 'gaussian'
    degauss          = 0.01
/
&ELECTRONS
    electron_maxstep = 50
    conv_thr         = 1.0d-6
    mixing_beta      = 0.3
    diagonalization  = 'david'
/
ATOMIC_SPECIES
  Si  28.0855  Si_ONCV_PBE-1.0.upf

CELL_PARAMETERS {bohr}
     30.780000      0.000000      0.000000
      0.000000     30.780000      0.000000
      0.000000      0.000000     30.780000

ATOMIC_POSITIONS {crystal}
  Si    0.000000    0.000000    0.000000
  Si    0.166667    0.166667    0.000000
  Si    0.166667    0.000000    0.166667
  Si    0.000000    0.166667    0.166667
  Si    0.083333    0.083333    0.083333
  Si    0.250000    0.250000    0.083333
  Si    0.250000    0.083333    0.250000
  Si    0.083333    0.250000    0.250000
  Si    0.000000    0.000000    0.333333
  Si    0.166667    0.166667    0.333333
  Si    0.166667    0.000000    0.500000
  Si    0.000000    0.166667    0.500000
  Si    0.083333    0.083333    0.416667
  Si    0.250000    0.250000    0.416667
  Si    0.250000    0.083333    0.583333
  Si    0.083333    0.250000    0.583333
  Si    0.000000    0.000000    0.666667
  Si    0.166667    0.166667    0.666667
  Si    0.166667    0.000000    0.833333
  Si    0.000000    0.166667    0.833333
  Si    0.083333    0.083333    0.750000
  Si    0.250000    0.250000    0.750000
  Si    0.250000    0.083333    0.916667
  Si    0.083333    0.250000    0.916667
  Si    0.000000    0.333333    0.000000
  Si    0.166667    0.500000    0.000000
  Si    0.166667    0.333333    0.166667
  Si    0.000000    0.500000    0.166667
  Si    0.083333    0.416667    0.083333
  Si    0.250000    0.583333    0.083333
  Si    0.250000    0.416667    0.250000
  Si    0.083333    0.583333    0.250000
  Si    0.000000    0.333333    0.333333
  Si    0.166667    0.500000    0.333333
  Si    0.166667    0.333333    0.500000
  Si    0.000000    0.500000    0.500000
  Si    0.083333    0.416667    0.416667
  Si    0.250000    0.583333    0.416667
  Si    0.250000    0.416667    0.583333
  Si    0.083333    0.583333    0.583333
  Si    0.000000    0.333333    0.666667
  Si    0.166667    0.500000    0.666667
  Si    0.166667    0.333333    0.833333
  Si    0.000000    0.500000    0.833333
  Si    0.083333    0.416667    0.750000
  Si    0.250000    0.583333    0.750000
  Si    0.250000    0.416667    0.916667
  Si    0.083333    0.583333    0.916667
  Si    0.000000    0.666667    0.000000
  Si    0.166667    0.833333    0.000000
  Si    0.166667    0.666667    0.166667
  Si    0.000000    0.833333    0.166667
  Si    0.083333    0.750000    0.083333
  Si    0.250000    0.916667    0.083333
  Si    0.250000    0.750000    0.250000
  Si    0.083333    0.916667    0.250000
  Si    0.000000    0.666667    0.333333
  Si    0.166667    0.833333    0.333333
  Si    0.166667    0.666667    0.500000
  Si    0.000000    0.833333    0.500000
  Si    0.083333    0.750000    0.416667
  Si    0.250000    0.916667    0.416667
  Si    0.250000    0.750000    0.583333
  Si    0.083333    0.916667    0.583333
  Si    0.000000    0.666667    0.666667
  Si    0.166667    0.833333    0.666667
  Si    0.166667    0.666667    0.833333
  Si    0.000000    0.833333    0.833333
  Si    0.083333    0.750000    0.750000
  Si    0.250000    0.916667    0.750000
  Si    0.250000    0.750000    0.916667
  Si    0.083333    0.916667    0.916667
  Si    0.333333    0.000000    0.000000
  Si    0.500000    0.166667    0.000000
  Si    0.500000    0.000000    0.166667
  Si    0.333333    0.166667    0.166667
  Si    0.416667    0.083333    0.083333
  Si    0.583333    0.250000    0.083333
  Si    0.583333    0.083333    0.250000
  Si    0.416667    0.250000    0.250000
  Si    0.333333    0.000000    0.333333
  Si    0.500000    0.166667    0.333333
  Si    0.500000    0.000000    0.500000
  Si    0.333333    0.166667    0.500000
  Si    0.416667    0.083333    0.416667
  Si    0.583333    0.250000    0.416667
  Si    0.583333    0.083333    0.583333
  Si    0.416667    0.250000    0.583333
  Si    0.333333    0.000000    0.666667
  Si    0.500000    0.166667    0.666667
  Si    0.500000    0.000000    0.833333
  Si    0.333333    0.166667    0.833333
  Si    0.416667    0.083333    0.750000
  Si    0.583333    0.250000    0.750000
  Si    0.583333    0.083333    0.916667
  Si    0.416667    0.250000    0.916667
  Si    0.333333    0.333333    0.000000
  Si    0.500000    0.500000    0.000000
  Si    0.500000    0.333333    0.166667
  Si    0.333333    0.500000    0.166667
  Si    0.416667    0.416667    0.083333
  Si    0.583333    0.583333    0.083333
  Si    0.583333    0.416667    0.250000
  Si    0.416667    0.583333    0.250000
  Si    0.333333    0.333333    0.333333
  Si    0.500000    0.500000    0.333333
  Si    0.500000    0.333333    0.500000
  Si    0.333333    0.500000    0.500000
  Si    0.416667    0.416667    0.416667
  Si    0.583333    0.583333    0.416667
  Si    0.583333    0.416667    0.583333
  Si    0.416667    0.583333    0.583333
  Si    0.333333    0.333333    0.666667
  Si    0.500000    0.500000    0.666667
  Si    0.500000    0.333333    0.833333
  Si    0.333333    0.500000    0.833333
  Si    0.416667    0.416667    0.750000
  Si    0.583333    0.583333    0.750000
  Si    0.583333    0.416667    0.916667
  Si    0.416667    0.583333    0.916667
  Si    0.333333    0.666667    0.000000
  Si    0.500000    0.833333    0.000000
  Si    0.500000    0.666667    0.166667
  Si    0.333333    0.833333    0.166667
  Si    0.416667    0.750000    0.083333
  Si    0.583333    0.916667    0.083333
  Si    0.583333    0.750000    0.250000
  Si    0.416667    0.916667    0.250000
  Si    0.333333    0.666667    0.333333
  Si    0.500000    0.833333    0.333333
  Si    0.500000    0.666667    0.500000
  Si    0.333333    0.833333    0.500000
  Si    0.416667    0.750000    0.416667
  Si    0.583333    0.916667    0.416667
  Si    0.583333    0.750000    0.583333
  Si    0.416667    0.916667    0.583333
  Si    0.333333    0.666667    0.666667
  Si    0.500000    0.833333    0.666667
  Si    0.500000    0.666667    0.833333
  Si    0.333333    0.833333    0.833333
  Si    0.416667    0.750000    0.750000
  Si    0.583333    0.916667    0.750000
  Si    0.583333    0.750000    0.916667
  Si    0.416667    0.916667    0.916667
  Si    0.666667    0.000000    0.000000
  Si    0.833333    0.166667    0.000000
  Si    0.833333    0.000000    0.166667
  Si    0.666667    0.166667    0.166667
  Si    0.750000    0.083333    0.083333
  Si    0.916667    0.250000    0.083333
  Si    0.916667    0.083333    0.250000
  Si    0.750000    0.250000    0.250000
  Si    0.666667    0.000000    0.333333
  Si    0.833333    0.166667    0.333333
  Si    0.833333    0.000000    0.500000
  Si    0.666667    0.166667    0.500000
  Si    0.750000    0.083333    0.416667
  Si    0.916667    0.250000    0.416667
  Si    0.916667    0.083333    0.583333
  Si    0.750000    0.250000    0.583333
  Si    0.666667    0.000000    0.666667
  Si    0.833333    0.166667    0.666667
  Si    0.833333    0.000000    0.833333
  Si    0.666667    0.166667    0.833333
  Si    0.750000    0.083333    0.750000
  Si    0.916667    0.250000    0.750000
  Si    0.916667    0.083333    0.916667
  Si    0.750000    0.250000    0.916667
  Si    0.666667    0.333333    0.000000
  Si    0.833333    0.500000    0.000000
  Si    0.833333    0.333333    0.166667
  Si    0.666667    0.500000    0.166667
  Si    0.750000    0.416667    0.083333
  Si    0.916667    0.583333    0.083333
  Si    0.916667    0.416667    0.250000
  Si    0.750000    0.583333    0.250000
  Si    0.666667    0.333333    0.333333
  Si    0.833333    0.500000    0.333333
  Si    0.833333    0.333333    0.500000
  Si    0.666667    0.500000    0.500000
  Si    0.750000    0.416667    0.416667
  Si    0.916667    0.583333    0.416667
  Si    0.916667    0.416667    0.583333
  Si    0.750000    0.583333    0.583333
  Si    0.666667    0.333333    0.666667
  Si    0.833333    0.500000    0.666667
  Si    0.833333    0.333333    0.833333
  Si    0.666667    0.500000    0.833333
  Si    0.750000    0.416667    0.750000
  Si    0.916667    0.583333    0.750000
  Si    0.916667    0.416667    0.916667
  Si    0.750000    0.583333    0.916667
  Si    0.666667    0.666667    0.000000
  Si    0.833333    0.833333    0.000000
  Si    0.833333    0.666667    0.166667
  Si    0.666667    0.833333    0.166667
  Si    0.750000    0.750000    0.083333
  Si    0.916667    0.916667    0.083333
  Si    0.916667    0.750000    0.250000
  Si    0.750000    0.916667    0.250000
  Si    0.666667    0.666667    0.333333
  Si    0.833333    0.833333    0.333333
  Si    0.833333    0.666667    0.500000
  Si    0.666667    0.833333    0.500000
  Si    0.750000    0.750000    0.416667
  Si    0.916667    0.916667    0.416667
  Si    0.916667    0.750000    0.583333
  Si    0.750000    0.916667    0.583333
  Si    0.666667    0.666667    0.666667
  Si    0.833333    0.833333    0.666667
  Si    0.833333    0.666667    0.833333
  Si    0.666667    0.833333    0.833333
  Si    0.750000    0.750000    0.750000
  Si    0.916667    0.916667    0.750000
  Si    0.916667    0.750000    0.916667
  Si    0.750000    0.916667    0.916667

K_POINTS {automatic}
  1 1 1  0 0 0
