! Generated by generate_inputs.sh on 2026-04-14T21:42:10
! System: si64_500b — Si diamond, 2x2x2 of conventional cell (a=10.26 bohr)
! Purpose: apple-bottom A/B/C BLAS benchmark (AB_MODE={cpu,gpu,auto})
&CONTROL
    calculation      = 'scf'
    prefix           = 'si64_500b'
    outdir           = './tmp'
    pseudo_dir       = '/Users/grantheileman/qe-test/wannier90/pseudo'
    verbosity        = 'default'
    tstress          = .false.
    tprnfor          = .false.
/
&SYSTEM
    ibrav            = 0
    nat              = 64
    ntyp             = 1
    ecutwfc          = 25.0
    nbnd             = 500
    occupations      = 'smearing'
    smearing         = 'gaussian'
    degauss          = 0.01
/
&ELECTRONS
    electron_maxstep = 50
    conv_thr         = 1.0d-6
    mixing_beta      = 0.3
    diagonalization  = 'david'
/
ATOMIC_SPECIES
  Si  28.0855  Si_ONCV_PBE-1.0.upf

CELL_PARAMETERS {bohr}
     20.520000      0.000000      0.000000
      0.000000     20.520000      0.000000
      0.000000      0.000000     20.520000

ATOMIC_POSITIONS {crystal}
  Si    0.000000    0.000000    0.000000
  Si    0.250000    0.250000    0.000000
  Si    0.250000    0.000000    0.250000
  Si    0.000000    0.250000    0.250000
  Si    0.125000    0.125000    0.125000
  Si    0.375000    0.375000    0.125000
  Si    0.375000    0.125000    0.375000
  Si    0.125000    0.375000    0.375000
  Si    0.000000    0.000000    0.500000
  Si    0.250000    0.250000    0.500000
  Si    0.250000    0.000000    0.750000
  Si    0.000000    0.250000    0.750000
  Si    0.125000    0.125000    0.625000
  Si    0.375000    0.375000    0.625000
  Si    0.375000    0.125000    0.875000
  Si    0.125000    0.375000    0.875000
  Si    0.000000    0.500000    0.000000
  Si    0.250000    0.750000    0.000000
  Si    0.250000    0.500000    0.250000
  Si    0.000000    0.750000    0.250000
  Si    0.125000    0.625000    0.125000
  Si    0.375000    0.875000    0.125000
  Si    0.375000    0.625000    0.375000
  Si    0.125000    0.875000    0.375000
  Si    0.000000    0.500000    0.500000
  Si    0.250000    0.750000    0.500000
  Si    0.250000    0.500000    0.750000
  Si    0.000000    0.750000    0.750000
  Si    0.125000    0.625000    0.625000
  Si    0.375000    0.875000    0.625000
  Si    0.375000    0.625000    0.875000
  Si    0.125000    0.875000    0.875000
  Si    0.500000    0.000000    0.000000
  Si    0.750000    0.250000    0.000000
  Si    0.750000    0.000000    0.250000
  Si    0.500000    0.250000    0.250000
  Si    0.625000    0.125000    0.125000
  Si    0.875000    0.375000    0.125000
  Si    0.875000    0.125000    0.375000
  Si    0.625000    0.375000    0.375000
  Si    0.500000    0.000000    0.500000
  Si    0.750000    0.250000    0.500000
  Si    0.750000    0.000000    0.750000
  Si    0.500000    0.250000    0.750000
  Si    0.625000    0.125000    0.625000
  Si    0.875000    0.375000    0.625000
  Si    0.875000    0.125000    0.875000
  Si    0.625000    0.375000    0.875000
  Si    0.500000    0.500000    0.000000
  Si    0.750000    0.750000    0.000000
  Si    0.750000    0.500000    0.250000
  Si    0.500000    0.750000    0.250000
  Si    0.625000    0.625000    0.125000
  Si    0.875000    0.875000    0.125000
  Si    0.875000    0.625000    0.375000
  Si    0.625000    0.875000    0.375000
  Si    0.500000    0.500000    0.500000
  Si    0.750000    0.750000    0.500000
  Si    0.750000    0.500000    0.750000
  Si    0.500000    0.750000    0.750000
  Si    0.625000    0.625000    0.625000
  Si    0.875000    0.875000    0.625000
  Si    0.875000    0.625000    0.875000
  Si    0.625000    0.875000    0.875000

K_POINTS {automatic}
  1 1 1  0 0 0
